(set-option :produce-models true)
(set-logic QF_LRA)
(set-info :notes | Strip-packing problem.|)
(declare-fun x0 () Real)
(declare-fun y0 () Real)
(declare-fun x1 () Real)
(declare-fun y1 () Real)
(declare-fun x2 () Real)
(declare-fun y2 () Real)
(declare-fun x3 () Real)
(declare-fun y3 () Real)
(declare-fun x4 () Real)
(declare-fun y4 () Real)
(declare-fun x5 () Real)
(declare-fun y5 () Real)
(declare-fun x6 () Real)
(declare-fun y6 () Real)
(declare-fun x7 () Real)
(declare-fun y7 () Real)
(declare-fun x8 () Real)
(declare-fun y8 () Real)
(declare-fun z () Real)
(declare-fun c () Real)
(assert (and (= c z) (and (>= x0 0) 
(and (>= y0 0) 
(and (>= x1 0) 
(and (>= y1 0) 
(and (>= x2 0) 
(and (>= y2 0) 
(and (>= x3 0) 
(and (>= y3 0) 
(and (>= x4 0) 
(and (>= y4 0) 
(and (>= x5 0) 
(and (>= y5 0) 
(and (>= x6 0) 
(and (>= y6 0) 
(and (>= x7 0) 
(and (>= y7 0) 
(and (>= x8 0) 
(and (>= y8 0) 
(and (>= z 0) 
(and (>= c 0) 
(and (<= (+ x0 0.9262853238) z) 
(and (<= 0.9913833282 y0) 
(and (<= y0 1.0) 
(and (<= x0 (- 4.6645382879 0.9262853238)) 
(and (>= x0 0) 
(and (<= (+ x1 0.7453139448) z) 
(and (<= 0.6439075417 y1) 
(and (<= y1 1.0) 
(and (<= x1 (- 4.6645382879 0.7453139448)) 
(and (>= x1 0) 
(and (<= (+ x2 0.7901487555) z) 
(and (<= 0.6146020887 y2) 
(and (<= y2 1.0) 
(and (<= x2 (- 4.6645382879 0.7901487555)) 
(and (>= x2 0) 
(and (<= (+ x3 0.8049396856) z) 
(and (<= 0.6043993329 y3) 
(and (<= y3 1.0) 
(and (<= x3 (- 4.6645382879 0.8049396856)) 
(and (>= x3 0) 
(and (<= (+ x4 0.5761486042) z) 
(and (<= 0.5778227613 y4) 
(and (<= y4 1.0) 
(and (<= x4 (- 4.6645382879 0.5761486042)) 
(and (>= x4 0) 
(and (<= (+ x5 0.4373192191) z) 
(and (<= 0.354189226 y5) 
(and (<= y5 1.0) 
(and (<= x5 (- 4.6645382879 0.4373192191)) 
(and (>= x5 0) 
(and (<= (+ x6 0.821701974) z) 
(and (<= 0.1853100134 y6) 
(and (<= y6 1.0) 
(and (<= x6 (- 4.6645382879 0.821701974)) 
(and (>= x6 0) 
(and (<= (+ x7 0.2477224238) z) 
(and (<= 0.1326871634 y7) 
(and (<= y7 1.0) 
(and (<= x7 (- 4.6645382879 0.2477224238)) 
(and (>= x7 0) 
(and (<= (+ x8 0.7059953162) z) 
(and (<= 0.1172269743 y8) 
(and (<= y8 1.0) 
(and (<= x8 (- 4.6645382879 0.7059953162)) 
(and (>= x8 0) 
(and (<= c 4.6645382879) 
(and (or (<= (+ x0 0.9262853238) x1) (or (<= (+ x1 0.7453139448) x0) (or (>= (- y0 0.9913833282) y1) (or (>= (- y1 0.6439075417) y0))))) 
(and (or (<= (+ x0 0.9262853238) x2) (or (<= (+ x2 0.7901487555) x0) (or (>= (- y0 0.9913833282) y2) (or (>= (- y2 0.6146020887) y0))))) 
(and (or (<= (+ x0 0.9262853238) x3) (or (<= (+ x3 0.8049396856) x0) (or (>= (- y0 0.9913833282) y3) (or (>= (- y3 0.6043993329) y0))))) 
(and (or (<= (+ x0 0.9262853238) x4) (or (<= (+ x4 0.5761486042) x0) (or (>= (- y0 0.9913833282) y4) (or (>= (- y4 0.5778227613) y0))))) 
(and (or (<= (+ x0 0.9262853238) x5) (or (<= (+ x5 0.4373192191) x0) (or (>= (- y0 0.9913833282) y5) (or (>= (- y5 0.354189226) y0))))) 
(and (or (<= (+ x0 0.9262853238) x6) (or (<= (+ x6 0.821701974) x0) (or (>= (- y0 0.9913833282) y6) (or (>= (- y6 0.1853100134) y0))))) 
(and (or (<= (+ x0 0.9262853238) x7) (or (<= (+ x7 0.2477224238) x0) (or (>= (- y0 0.9913833282) y7) (or (>= (- y7 0.1326871634) y0))))) 
(and (or (<= (+ x0 0.9262853238) x8) (or (<= (+ x8 0.7059953162) x0) (or (>= (- y0 0.9913833282) y8) (or (>= (- y8 0.1172269743) y0))))) 
(and (or (<= (+ x1 0.7453139448) x2) (or (<= (+ x2 0.7901487555) x1) (or (>= (- y1 0.6439075417) y2) (or (>= (- y2 0.6146020887) y1))))) 
(and (or (<= (+ x1 0.7453139448) x3) (or (<= (+ x3 0.8049396856) x1) (or (>= (- y1 0.6439075417) y3) (or (>= (- y3 0.6043993329) y1))))) 
(and (or (<= (+ x1 0.7453139448) x4) (or (<= (+ x4 0.5761486042) x1) (or (>= (- y1 0.6439075417) y4) (or (>= (- y4 0.5778227613) y1))))) 
(and (or (<= (+ x1 0.7453139448) x5) (or (<= (+ x5 0.4373192191) x1) (or (>= (- y1 0.6439075417) y5) (or (>= (- y5 0.354189226) y1))))) 
(and (or (<= (+ x1 0.7453139448) x6) (or (<= (+ x6 0.821701974) x1) (or (>= (- y1 0.6439075417) y6) (or (>= (- y6 0.1853100134) y1))))) 
(and (or (<= (+ x1 0.7453139448) x7) (or (<= (+ x7 0.2477224238) x1) (or (>= (- y1 0.6439075417) y7) (or (>= (- y7 0.1326871634) y1))))) 
(and (or (<= (+ x1 0.7453139448) x8) (or (<= (+ x8 0.7059953162) x1) (or (>= (- y1 0.6439075417) y8) (or (>= (- y8 0.1172269743) y1))))) 
(and (or (<= (+ x2 0.7901487555) x3) (or (<= (+ x3 0.8049396856) x2) (or (>= (- y2 0.6146020887) y3) (or (>= (- y3 0.6043993329) y2))))) 
(and (or (<= (+ x2 0.7901487555) x4) (or (<= (+ x4 0.5761486042) x2) (or (>= (- y2 0.6146020887) y4) (or (>= (- y4 0.5778227613) y2))))) 
(and (or (<= (+ x2 0.7901487555) x5) (or (<= (+ x5 0.4373192191) x2) (or (>= (- y2 0.6146020887) y5) (or (>= (- y5 0.354189226) y2))))) 
(and (or (<= (+ x2 0.7901487555) x6) (or (<= (+ x6 0.821701974) x2) (or (>= (- y2 0.6146020887) y6) (or (>= (- y6 0.1853100134) y2))))) 
(and (or (<= (+ x2 0.7901487555) x7) (or (<= (+ x7 0.2477224238) x2) (or (>= (- y2 0.6146020887) y7) (or (>= (- y7 0.1326871634) y2))))) 
(and (or (<= (+ x2 0.7901487555) x8) (or (<= (+ x8 0.7059953162) x2) (or (>= (- y2 0.6146020887) y8) (or (>= (- y8 0.1172269743) y2))))) 
(and (or (<= (+ x3 0.8049396856) x4) (or (<= (+ x4 0.5761486042) x3) (or (>= (- y3 0.6043993329) y4) (or (>= (- y4 0.5778227613) y3))))) 
(and (or (<= (+ x3 0.8049396856) x5) (or (<= (+ x5 0.4373192191) x3) (or (>= (- y3 0.6043993329) y5) (or (>= (- y5 0.354189226) y3))))) 
(and (or (<= (+ x3 0.8049396856) x6) (or (<= (+ x6 0.821701974) x3) (or (>= (- y3 0.6043993329) y6) (or (>= (- y6 0.1853100134) y3))))) 
(and (or (<= (+ x3 0.8049396856) x7) (or (<= (+ x7 0.2477224238) x3) (or (>= (- y3 0.6043993329) y7) (or (>= (- y7 0.1326871634) y3))))) 
(and (or (<= (+ x3 0.8049396856) x8) (or (<= (+ x8 0.7059953162) x3) (or (>= (- y3 0.6043993329) y8) (or (>= (- y8 0.1172269743) y3))))) 
(and (or (<= (+ x4 0.5761486042) x5) (or (<= (+ x5 0.4373192191) x4) (or (>= (- y4 0.5778227613) y5) (or (>= (- y5 0.354189226) y4))))) 
(and (or (<= (+ x4 0.5761486042) x6) (or (<= (+ x6 0.821701974) x4) (or (>= (- y4 0.5778227613) y6) (or (>= (- y6 0.1853100134) y4))))) 
(and (or (<= (+ x4 0.5761486042) x7) (or (<= (+ x7 0.2477224238) x4) (or (>= (- y4 0.5778227613) y7) (or (>= (- y7 0.1326871634) y4))))) 
(and (or (<= (+ x4 0.5761486042) x8) (or (<= (+ x8 0.7059953162) x4) (or (>= (- y4 0.5778227613) y8) (or (>= (- y8 0.1172269743) y4))))) 
(and (or (<= (+ x5 0.4373192191) x6) (or (<= (+ x6 0.821701974) x5) (or (>= (- y5 0.354189226) y6) (or (>= (- y6 0.1853100134) y5))))) 
(and (or (<= (+ x5 0.4373192191) x7) (or (<= (+ x7 0.2477224238) x5) (or (>= (- y5 0.354189226) y7) (or (>= (- y7 0.1326871634) y5))))) 
(and (or (<= (+ x5 0.4373192191) x8) (or (<= (+ x8 0.7059953162) x5) (or (>= (- y5 0.354189226) y8) (or (>= (- y8 0.1172269743) y5))))) 
(and (or (<= (+ x6 0.821701974) x7) (or (<= (+ x7 0.2477224238) x6) (or (>= (- y6 0.1853100134) y7) (or (>= (- y7 0.1326871634) y6))))) 
(and (or (<= (+ x6 0.821701974) x8) (or (<= (+ x8 0.7059953162) x6) (or (>= (- y6 0.1853100134) y8) (or (>= (- y8 0.1172269743) y6))))) 
(and (or (<= (+ x7 0.2477224238) x8) (or (<= (+ x8 0.7059953162) x7) (or (>= (- y7 0.1326871634) y8) (or (>= (- y8 0.1172269743) y7))))) ))))))))))))))))))))))))))))))))))))))))))))))))))))))))))))))))))))))))))))))))))))))))))))))))))))))))
(minimize c)
(check-sat)
(get-objectives)
(exit)
